logs/drand/ip/drand-07-110-2.lp
\ LP format - for model browsing. Use MPS format to capture full model detail.
Minimize
  z0 + z1 + z2 + z3 + z4 + z5 + z6 + z7
Subject To
 R0: x0,1_33 + x0,1_55 + x0,1_56 + x0,1_69 + x0,1_79 + x0,1_89 + x0,1_91
   - z1 <= 0
 R1: x0,2_33 + x0,2_55 + x0,2_56 + x0,2_69 + x0,2_79 + x0,2_89 + x0,2_91
   - z2 <= 0
 R2: x0,3_33 + x0,3_55 + x0,3_56 + x0,3_69 + x0,3_79 + x0,3_89 + x0,3_91
   - z3 <= 0
 R3: x0,4_33 + x0,4_55 + x0,4_56 + x0,4_69 + x0,4_79 + x0,4_89 + x0,4_91
   - z4 <= 0
 R4: x0,5_33 + x0,5_55 + x0,5_56 + x0,5_69 + x0,5_79 + x0,5_89 + x0,5_91
   - z5 <= 0
 R5: x0,6_33 + x0,6_55 + x0,6_56 + x0,6_69 + x0,6_79 + x0,6_89 + x0,6_91
   - z6 <= 0
 R6: x0,7_33 + x0,7_55 + x0,7_56 + x0,7_69 + x0,7_79 + x0,7_89 + x0,7_91
   - z7 <= 0
 R7: x1,2_33 + x1,2_55 + x1,2_56 + x1,2_69 + x1,2_79 + x1,2_89 + x1,2_91
   - z2 <= 0
 R8: x1,3_33 + x1,3_55 + x1,3_56 + x1,3_69 + x1,3_79 + x1,3_89 + x1,3_91
   - z3 <= 0
 R9: x1,4_33 + x1,4_55 + x1,4_56 + x1,4_69 + x1,4_79 + x1,4_89 + x1,4_91
   - z4 <= 0
 R10: x1,5_33 + x1,5_55 + x1,5_56 + x1,5_69 + x1,5_79 + x1,5_89 + x1,5_91
   - z5 <= 0
 R11: x1,6_33 + x1,6_55 + x1,6_56 + x1,6_69 + x1,6_79 + x1,6_89 + x1,6_91
   - z6 <= 0
 R12: x1,7_33 + x1,7_55 + x1,7_56 + x1,7_69 + x1,7_79 + x1,7_89 + x1,7_91
   - z7 <= 0
 R13: x2,3_33 + x2,3_55 + x2,3_56 + x2,3_69 + x2,3_79 + x2,3_89 + x2,3_91
   - z3 <= 0
 R14: x2,4_33 + x2,4_55 + x2,4_56 + x2,4_69 + x2,4_79 + x2,4_89 + x2,4_91
   - z4 <= 0
 R15: x2,5_33 + x2,5_55 + x2,5_56 + x2,5_69 + x2,5_79 + x2,5_89 + x2,5_91
   - z5 <= 0
 R16: x2,6_33 + x2,6_55 + x2,6_56 + x2,6_69 + x2,6_79 + x2,6_89 + x2,6_91
   - z6 <= 0
 R17: x2,7_33 + x2,7_55 + x2,7_56 + x2,7_69 + x2,7_79 + x2,7_89 + x2,7_91
   - z7 <= 0
 R18: x3,4_33 + x3,4_55 + x3,4_56 + x3,4_69 + x3,4_79 + x3,4_89 + x3,4_91
   - z4 <= 0
 R19: x3,5_33 + x3,5_55 + x3,5_56 + x3,5_69 + x3,5_79 + x3,5_89 + x3,5_91
   - z5 <= 0
 R20: x3,6_33 + x3,6_55 + x3,6_56 + x3,6_69 + x3,6_79 + x3,6_89 + x3,6_91
   - z6 <= 0
 R21: x3,7_33 + x3,7_55 + x3,7_56 + x3,7_69 + x3,7_79 + x3,7_89 + x3,7_91
   - z7 <= 0
 R22: x4,5_33 + x4,5_55 + x4,5_56 + x4,5_69 + x4,5_79 + x4,5_89 + x4,5_91
   - z5 <= 0
 R23: x4,6_33 + x4,6_55 + x4,6_56 + x4,6_69 + x4,6_79 + x4,6_89 + x4,6_91
   - z6 <= 0
 R24: x4,7_33 + x4,7_55 + x4,7_56 + x4,7_69 + x4,7_79 + x4,7_89 + x4,7_91
   - z7 <= 0
 R25: x5,6_33 + x5,6_55 + x5,6_56 + x5,6_69 + x5,6_79 + x5,6_89 + x5,6_91
   - z6 <= 0
 R26: x5,7_33 + x5,7_55 + x5,7_56 + x5,7_69 + x5,7_79 + x5,7_89 + x5,7_91
   - z7 <= 0
 R27: x6,7_33 + x6,7_55 + x6,7_56 + x6,7_69 + x6,7_79 + x6,7_89 + x6,7_91
   - z7 <= 0
 R28: x0,1_33 + x0,2_33 + x0,3_33 + x0,4_33 + x0,5_33 + x0,6_33 + x0,7_33
   + x1,2_33 + x1,3_33 + x1,4_33 + x1,5_33 + x1,6_33 + x1,7_33 + x2,3_33
   + x2,4_33 + x2,5_33 + x2,6_33 + x2,7_33 + x3,4_33 + x3,5_33 + x3,6_33
   + x3,7_33 + x4,5_33 + x4,6_33 + x4,7_33 + x5,6_33 + x5,7_33 + x6,7_33
   = 1
 R29: x0,1_55 + x0,2_55 + x0,3_55 + x0,4_55 + x0,5_55 + x0,6_55 + x0,7_55
   + x1,2_55 + x1,3_55 + x1,4_55 + x1,5_55 + x1,6_55 + x1,7_55 + x2,3_55
   + x2,4_55 + x2,5_55 + x2,6_55 + x2,7_55 + x3,4_55 + x3,5_55 + x3,6_55
   + x3,7_55 + x4,5_55 + x4,6_55 + x4,7_55 + x5,6_55 + x5,7_55 + x6,7_55
   = 1
 R30: x0,1_56 + x0,2_56 + x0,3_56 + x0,4_56 + x0,5_56 + x0,6_56 + x0,7_56
   + x1,2_56 + x1,3_56 + x1,4_56 + x1,5_56 + x1,6_56 + x1,7_56 + x2,3_56
   + x2,4_56 + x2,5_56 + x2,6_56 + x2,7_56 + x3,4_56 + x3,5_56 + x3,6_56
   + x3,7_56 + x4,5_56 + x4,6_56 + x4,7_56 + x5,6_56 + x5,7_56 + x6,7_56
   = 1
 R31: x0,1_69 + x0,2_69 + x0,3_69 + x0,4_69 + x0,5_69 + x0,6_69 + x0,7_69
   + x1,2_69 + x1,3_69 + x1,4_69 + x1,5_69 + x1,6_69 + x1,7_69 + x2,3_69
   + x2,4_69 + x2,5_69 + x2,6_69 + x2,7_69 + x3,4_69 + x3,5_69 + x3,6_69
   + x3,7_69 + x4,5_69 + x4,6_69 + x4,7_69 + x5,6_69 + x5,7_69 + x6,7_69
   = 1
 R32: x0,1_79 + x0,2_79 + x0,3_79 + x0,4_79 + x0,5_79 + x0,6_79 + x0,7_79
   + x1,2_79 + x1,3_79 + x1,4_79 + x1,5_79 + x1,6_79 + x1,7_79 + x2,3_79
   + x2,4_79 + x2,5_79 + x2,6_79 + x2,7_79 + x3,4_79 + x3,5_79 + x3,6_79
   + x3,7_79 + x4,5_79 + x4,6_79 + x4,7_79 + x5,6_79 + x5,7_79 + x6,7_79
   = 1
 R33: x0,1_89 + x0,2_89 + x0,3_89 + x0,4_89 + x0,5_89 + x0,6_89 + x0,7_89
   + x1,2_89 + x1,3_89 + x1,4_89 + x1,5_89 + x1,6_89 + x1,7_89 + x2,3_89
   + x2,4_89 + x2,5_89 + x2,6_89 + x2,7_89 + x3,4_89 + x3,5_89 + x3,6_89
   + x3,7_89 + x4,5_89 + x4,6_89 + x4,7_89 + x5,6_89 + x5,7_89 + x6,7_89
   = 1
 R34: x0,1_91 + x0,2_91 + x0,3_91 + x0,4_91 + x0,5_91 + x0,6_91 + x0,7_91
   + x1,2_91 + x1,3_91 + x1,4_91 + x1,5_91 + x1,6_91 + x1,7_91 + x2,3_91
   + x2,4_91 + x2,5_91 + x2,6_91 + x2,7_91 + x3,4_91 + x3,5_91 + x3,6_91
   + x3,7_91 + x4,5_91 + x4,6_91 + x4,7_91 + x5,6_91 + x5,7_91 + x6,7_91
   = 1
 R35: p0 - p1 <= -1
 R36: - 33 x0,1_33 - p0 + p1 >= 0
 R37: 472 x0,1_33 - p0 + p1 <= 505
 R38: - 55 x0,1_55 - p0 + p1 >= 0
 R39: 472 x0,1_55 - p0 + p1 <= 527
 R40: - 56 x0,1_56 - p0 + p1 >= 0
 R41: 472 x0,1_56 - p0 + p1 <= 528
 R42: - 69 x0,1_69 - p0 + p1 >= 0
 R43: 472 x0,1_69 - p0 + p1 <= 541
 R44: - 79 x0,1_79 - p0 + p1 >= 0
 R45: 472 x0,1_79 - p0 + p1 <= 551
 R46: - 89 x0,1_89 - p0 + p1 >= 0
 R47: 472 x0,1_89 - p0 + p1 <= 561
 R48: - 91 x0,1_91 - p0 + p1 >= 0
 R49: 472 x0,1_91 - p0 + p1 <= 563
 R50: p0 - p2 <= -1
 R51: - 33 x0,2_33 - p0 + p2 >= 0
 R52: 472 x0,2_33 - p0 + p2 <= 505
 R53: - 55 x0,2_55 - p0 + p2 >= 0
 R54: 472 x0,2_55 - p0 + p2 <= 527
 R55: - 56 x0,2_56 - p0 + p2 >= 0
 R56: 472 x0,2_56 - p0 + p2 <= 528
 R57: - 69 x0,2_69 - p0 + p2 >= 0
 R58: 472 x0,2_69 - p0 + p2 <= 541
 R59: - 79 x0,2_79 - p0 + p2 >= 0
 R60: 472 x0,2_79 - p0 + p2 <= 551
 R61: - 89 x0,2_89 - p0 + p2 >= 0
 R62: 472 x0,2_89 - p0 + p2 <= 561
 R63: - 91 x0,2_91 - p0 + p2 >= 0
 R64: 472 x0,2_91 - p0 + p2 <= 563
 R65: p0 - p3 <= -1
 R66: - 33 x0,3_33 - p0 + p3 >= 0
 R67: 472 x0,3_33 - p0 + p3 <= 505
 R68: - 55 x0,3_55 - p0 + p3 >= 0
 R69: 472 x0,3_55 - p0 + p3 <= 527
 R70: - 56 x0,3_56 - p0 + p3 >= 0
 R71: 472 x0,3_56 - p0 + p3 <= 528
 R72: - 69 x0,3_69 - p0 + p3 >= 0
 R73: 472 x0,3_69 - p0 + p3 <= 541
 R74: - 79 x0,3_79 - p0 + p3 >= 0
 R75: 472 x0,3_79 - p0 + p3 <= 551
 R76: - 89 x0,3_89 - p0 + p3 >= 0
 R77: 472 x0,3_89 - p0 + p3 <= 561
 R78: - 91 x0,3_91 - p0 + p3 >= 0
 R79: 472 x0,3_91 - p0 + p3 <= 563
 R80: p0 - p4 <= -1
 R81: - 33 x0,4_33 - p0 + p4 >= 0
 R82: 472 x0,4_33 - p0 + p4 <= 505
 R83: - 55 x0,4_55 - p0 + p4 >= 0
 R84: 472 x0,4_55 - p0 + p4 <= 527
 R85: - 56 x0,4_56 - p0 + p4 >= 0
 R86: 472 x0,4_56 - p0 + p4 <= 528
 R87: - 69 x0,4_69 - p0 + p4 >= 0
 R88: 472 x0,4_69 - p0 + p4 <= 541
 R89: - 79 x0,4_79 - p0 + p4 >= 0
 R90: 472 x0,4_79 - p0 + p4 <= 551
 R91: - 89 x0,4_89 - p0 + p4 >= 0
 R92: 472 x0,4_89 - p0 + p4 <= 561
 R93: - 91 x0,4_91 - p0 + p4 >= 0
 R94: 472 x0,4_91 - p0 + p4 <= 563
 R95: p0 - p5 <= -1
 R96: - 33 x0,5_33 - p0 + p5 >= 0
 R97: 472 x0,5_33 - p0 + p5 <= 505
 R98: - 55 x0,5_55 - p0 + p5 >= 0
 R99: 472 x0,5_55 - p0 + p5 <= 527
 R100: - 56 x0,5_56 - p0 + p5 >= 0
 R101: 472 x0,5_56 - p0 + p5 <= 528
 R102: - 69 x0,5_69 - p0 + p5 >= 0
 R103: 472 x0,5_69 - p0 + p5 <= 541
 R104: - 79 x0,5_79 - p0 + p5 >= 0
 R105: 472 x0,5_79 - p0 + p5 <= 551
 R106: - 89 x0,5_89 - p0 + p5 >= 0
 R107: 472 x0,5_89 - p0 + p5 <= 561
 R108: - 91 x0,5_91 - p0 + p5 >= 0
 R109: 472 x0,5_91 - p0 + p5 <= 563
 R110: p0 - p6 <= -1
 R111: - 33 x0,6_33 - p0 + p6 >= 0
 R112: 472 x0,6_33 - p0 + p6 <= 505
 R113: - 55 x0,6_55 - p0 + p6 >= 0
 R114: 472 x0,6_55 - p0 + p6 <= 527
 R115: - 56 x0,6_56 - p0 + p6 >= 0
 R116: 472 x0,6_56 - p0 + p6 <= 528
 R117: - 69 x0,6_69 - p0 + p6 >= 0
 R118: 472 x0,6_69 - p0 + p6 <= 541
 R119: - 79 x0,6_79 - p0 + p6 >= 0
 R120: 472 x0,6_79 - p0 + p6 <= 551
 R121: - 89 x0,6_89 - p0 + p6 >= 0
 R122: 472 x0,6_89 - p0 + p6 <= 561
 R123: - 91 x0,6_91 - p0 + p6 >= 0
 R124: 472 x0,6_91 - p0 + p6 <= 563
 R125: p0 - p7 <= -1
 R126: - 33 x0,7_33 - p0 + p7 >= 0
 R127: 472 x0,7_33 - p0 + p7 <= 505
 R128: - 55 x0,7_55 - p0 + p7 >= 0
 R129: 472 x0,7_55 - p0 + p7 <= 527
 R130: - 56 x0,7_56 - p0 + p7 >= 0
 R131: 472 x0,7_56 - p0 + p7 <= 528
 R132: - 69 x0,7_69 - p0 + p7 >= 0
 R133: 472 x0,7_69 - p0 + p7 <= 541
 R134: - 79 x0,7_79 - p0 + p7 >= 0
 R135: 472 x0,7_79 - p0 + p7 <= 551
 R136: - 89 x0,7_89 - p0 + p7 >= 0
 R137: 472 x0,7_89 - p0 + p7 <= 561
 R138: - 91 x0,7_91 - p0 + p7 >= 0
 R139: 472 x0,7_91 - p0 + p7 <= 563
 R140: p1 - p2 <= -1
 R141: - 33 x1,2_33 - p1 + p2 >= 0
 R142: 472 x1,2_33 - p1 + p2 <= 505
 R143: - 55 x1,2_55 - p1 + p2 >= 0
 R144: 472 x1,2_55 - p1 + p2 <= 527
 R145: - 56 x1,2_56 - p1 + p2 >= 0
 R146: 472 x1,2_56 - p1 + p2 <= 528
 R147: - 69 x1,2_69 - p1 + p2 >= 0
 R148: 472 x1,2_69 - p1 + p2 <= 541
 R149: - 79 x1,2_79 - p1 + p2 >= 0
 R150: 472 x1,2_79 - p1 + p2 <= 551
 R151: - 89 x1,2_89 - p1 + p2 >= 0
 R152: 472 x1,2_89 - p1 + p2 <= 561
 R153: - 91 x1,2_91 - p1 + p2 >= 0
 R154: 472 x1,2_91 - p1 + p2 <= 563
 R155: p1 - p3 <= -1
 R156: - 33 x1,3_33 - p1 + p3 >= 0
 R157: 472 x1,3_33 - p1 + p3 <= 505
 R158: - 55 x1,3_55 - p1 + p3 >= 0
 R159: 472 x1,3_55 - p1 + p3 <= 527
 R160: - 56 x1,3_56 - p1 + p3 >= 0
 R161: 472 x1,3_56 - p1 + p3 <= 528
 R162: - 69 x1,3_69 - p1 + p3 >= 0
 R163: 472 x1,3_69 - p1 + p3 <= 541
 R164: - 79 x1,3_79 - p1 + p3 >= 0
 R165: 472 x1,3_79 - p1 + p3 <= 551
 R166: - 89 x1,3_89 - p1 + p3 >= 0
 R167: 472 x1,3_89 - p1 + p3 <= 561
 R168: - 91 x1,3_91 - p1 + p3 >= 0
 R169: 472 x1,3_91 - p1 + p3 <= 563
 R170: p1 - p4 <= -1
 R171: - 33 x1,4_33 - p1 + p4 >= 0
 R172: 472 x1,4_33 - p1 + p4 <= 505
 R173: - 55 x1,4_55 - p1 + p4 >= 0
 R174: 472 x1,4_55 - p1 + p4 <= 527
 R175: - 56 x1,4_56 - p1 + p4 >= 0
 R176: 472 x1,4_56 - p1 + p4 <= 528
 R177: - 69 x1,4_69 - p1 + p4 >= 0
 R178: 472 x1,4_69 - p1 + p4 <= 541
 R179: - 79 x1,4_79 - p1 + p4 >= 0
 R180: 472 x1,4_79 - p1 + p4 <= 551
 R181: - 89 x1,4_89 - p1 + p4 >= 0
 R182: 472 x1,4_89 - p1 + p4 <= 561
 R183: - 91 x1,4_91 - p1 + p4 >= 0
 R184: 472 x1,4_91 - p1 + p4 <= 563
 R185: p1 - p5 <= -1
 R186: - 33 x1,5_33 - p1 + p5 >= 0
 R187: 472 x1,5_33 - p1 + p5 <= 505
 R188: - 55 x1,5_55 - p1 + p5 >= 0
 R189: 472 x1,5_55 - p1 + p5 <= 527
 R190: - 56 x1,5_56 - p1 + p5 >= 0
 R191: 472 x1,5_56 - p1 + p5 <= 528
 R192: - 69 x1,5_69 - p1 + p5 >= 0
 R193: 472 x1,5_69 - p1 + p5 <= 541
 R194: - 79 x1,5_79 - p1 + p5 >= 0
 R195: 472 x1,5_79 - p1 + p5 <= 551
 R196: - 89 x1,5_89 - p1 + p5 >= 0
 R197: 472 x1,5_89 - p1 + p5 <= 561
 R198: - 91 x1,5_91 - p1 + p5 >= 0
 R199: 472 x1,5_91 - p1 + p5 <= 563
 R200: p1 - p6 <= -1
 R201: - 33 x1,6_33 - p1 + p6 >= 0
 R202: 472 x1,6_33 - p1 + p6 <= 505
 R203: - 55 x1,6_55 - p1 + p6 >= 0
 R204: 472 x1,6_55 - p1 + p6 <= 527
 R205: - 56 x1,6_56 - p1 + p6 >= 0
 R206: 472 x1,6_56 - p1 + p6 <= 528
 R207: - 69 x1,6_69 - p1 + p6 >= 0
 R208: 472 x1,6_69 - p1 + p6 <= 541
 R209: - 79 x1,6_79 - p1 + p6 >= 0
 R210: 472 x1,6_79 - p1 + p6 <= 551
 R211: - 89 x1,6_89 - p1 + p6 >= 0
 R212: 472 x1,6_89 - p1 + p6 <= 561
 R213: - 91 x1,6_91 - p1 + p6 >= 0
 R214: 472 x1,6_91 - p1 + p6 <= 563
 R215: p1 - p7 <= -1
 R216: - 33 x1,7_33 - p1 + p7 >= 0
 R217: 472 x1,7_33 - p1 + p7 <= 505
 R218: - 55 x1,7_55 - p1 + p7 >= 0
 R219: 472 x1,7_55 - p1 + p7 <= 527
 R220: - 56 x1,7_56 - p1 + p7 >= 0
 R221: 472 x1,7_56 - p1 + p7 <= 528
 R222: - 69 x1,7_69 - p1 + p7 >= 0
 R223: 472 x1,7_69 - p1 + p7 <= 541
 R224: - 79 x1,7_79 - p1 + p7 >= 0
 R225: 472 x1,7_79 - p1 + p7 <= 551
 R226: - 89 x1,7_89 - p1 + p7 >= 0
 R227: 472 x1,7_89 - p1 + p7 <= 561
 R228: - 91 x1,7_91 - p1 + p7 >= 0
 R229: 472 x1,7_91 - p1 + p7 <= 563
 R230: p2 - p3 <= -1
 R231: - 33 x2,3_33 - p2 + p3 >= 0
 R232: 472 x2,3_33 - p2 + p3 <= 505
 R233: - 55 x2,3_55 - p2 + p3 >= 0
 R234: 472 x2,3_55 - p2 + p3 <= 527
 R235: - 56 x2,3_56 - p2 + p3 >= 0
 R236: 472 x2,3_56 - p2 + p3 <= 528
 R237: - 69 x2,3_69 - p2 + p3 >= 0
 R238: 472 x2,3_69 - p2 + p3 <= 541
 R239: - 79 x2,3_79 - p2 + p3 >= 0
 R240: 472 x2,3_79 - p2 + p3 <= 551
 R241: - 89 x2,3_89 - p2 + p3 >= 0
 R242: 472 x2,3_89 - p2 + p3 <= 561
 R243: - 91 x2,3_91 - p2 + p3 >= 0
 R244: 472 x2,3_91 - p2 + p3 <= 563
 R245: p2 - p4 <= -1
 R246: - 33 x2,4_33 - p2 + p4 >= 0
 R247: 472 x2,4_33 - p2 + p4 <= 505
 R248: - 55 x2,4_55 - p2 + p4 >= 0
 R249: 472 x2,4_55 - p2 + p4 <= 527
 R250: - 56 x2,4_56 - p2 + p4 >= 0
 R251: 472 x2,4_56 - p2 + p4 <= 528
 R252: - 69 x2,4_69 - p2 + p4 >= 0
 R253: 472 x2,4_69 - p2 + p4 <= 541
 R254: - 79 x2,4_79 - p2 + p4 >= 0
 R255: 472 x2,4_79 - p2 + p4 <= 551
 R256: - 89 x2,4_89 - p2 + p4 >= 0
 R257: 472 x2,4_89 - p2 + p4 <= 561
 R258: - 91 x2,4_91 - p2 + p4 >= 0
 R259: 472 x2,4_91 - p2 + p4 <= 563
 R260: p2 - p5 <= -1
 R261: - 33 x2,5_33 - p2 + p5 >= 0
 R262: 472 x2,5_33 - p2 + p5 <= 505
 R263: - 55 x2,5_55 - p2 + p5 >= 0
 R264: 472 x2,5_55 - p2 + p5 <= 527
 R265: - 56 x2,5_56 - p2 + p5 >= 0
 R266: 472 x2,5_56 - p2 + p5 <= 528
 R267: - 69 x2,5_69 - p2 + p5 >= 0
 R268: 472 x2,5_69 - p2 + p5 <= 541
 R269: - 79 x2,5_79 - p2 + p5 >= 0
 R270: 472 x2,5_79 - p2 + p5 <= 551
 R271: - 89 x2,5_89 - p2 + p5 >= 0
 R272: 472 x2,5_89 - p2 + p5 <= 561
 R273: - 91 x2,5_91 - p2 + p5 >= 0
 R274: 472 x2,5_91 - p2 + p5 <= 563
 R275: p2 - p6 <= -1
 R276: - 33 x2,6_33 - p2 + p6 >= 0
 R277: 472 x2,6_33 - p2 + p6 <= 505
 R278: - 55 x2,6_55 - p2 + p6 >= 0
 R279: 472 x2,6_55 - p2 + p6 <= 527
 R280: - 56 x2,6_56 - p2 + p6 >= 0
 R281: 472 x2,6_56 - p2 + p6 <= 528
 R282: - 69 x2,6_69 - p2 + p6 >= 0
 R283: 472 x2,6_69 - p2 + p6 <= 541
 R284: - 79 x2,6_79 - p2 + p6 >= 0
 R285: 472 x2,6_79 - p2 + p6 <= 551
 R286: - 89 x2,6_89 - p2 + p6 >= 0
 R287: 472 x2,6_89 - p2 + p6 <= 561
 R288: - 91 x2,6_91 - p2 + p6 >= 0
 R289: 472 x2,6_91 - p2 + p6 <= 563
 R290: p2 - p7 <= -1
 R291: - 33 x2,7_33 - p2 + p7 >= 0
 R292: 472 x2,7_33 - p2 + p7 <= 505
 R293: - 55 x2,7_55 - p2 + p7 >= 0
 R294: 472 x2,7_55 - p2 + p7 <= 527
 R295: - 56 x2,7_56 - p2 + p7 >= 0
 R296: 472 x2,7_56 - p2 + p7 <= 528
 R297: - 69 x2,7_69 - p2 + p7 >= 0
 R298: 472 x2,7_69 - p2 + p7 <= 541
 R299: - 79 x2,7_79 - p2 + p7 >= 0
 R300: 472 x2,7_79 - p2 + p7 <= 551
 R301: - 89 x2,7_89 - p2 + p7 >= 0
 R302: 472 x2,7_89 - p2 + p7 <= 561
 R303: - 91 x2,7_91 - p2 + p7 >= 0
 R304: 472 x2,7_91 - p2 + p7 <= 563
 R305: p3 - p4 <= -1
 R306: - 33 x3,4_33 - p3 + p4 >= 0
 R307: 472 x3,4_33 - p3 + p4 <= 505
 R308: - 55 x3,4_55 - p3 + p4 >= 0
 R309: 472 x3,4_55 - p3 + p4 <= 527
 R310: - 56 x3,4_56 - p3 + p4 >= 0
 R311: 472 x3,4_56 - p3 + p4 <= 528
 R312: - 69 x3,4_69 - p3 + p4 >= 0
 R313: 472 x3,4_69 - p3 + p4 <= 541
 R314: - 79 x3,4_79 - p3 + p4 >= 0
 R315: 472 x3,4_79 - p3 + p4 <= 551
 R316: - 89 x3,4_89 - p3 + p4 >= 0
 R317: 472 x3,4_89 - p3 + p4 <= 561
 R318: - 91 x3,4_91 - p3 + p4 >= 0
 R319: 472 x3,4_91 - p3 + p4 <= 563
 R320: p3 - p5 <= -1
 R321: - 33 x3,5_33 - p3 + p5 >= 0
 R322: 472 x3,5_33 - p3 + p5 <= 505
 R323: - 55 x3,5_55 - p3 + p5 >= 0
 R324: 472 x3,5_55 - p3 + p5 <= 527
 R325: - 56 x3,5_56 - p3 + p5 >= 0
 R326: 472 x3,5_56 - p3 + p5 <= 528
 R327: - 69 x3,5_69 - p3 + p5 >= 0
 R328: 472 x3,5_69 - p3 + p5 <= 541
 R329: - 79 x3,5_79 - p3 + p5 >= 0
 R330: 472 x3,5_79 - p3 + p5 <= 551
 R331: - 89 x3,5_89 - p3 + p5 >= 0
 R332: 472 x3,5_89 - p3 + p5 <= 561
 R333: - 91 x3,5_91 - p3 + p5 >= 0
 R334: 472 x3,5_91 - p3 + p5 <= 563
 R335: p3 - p6 <= -1
 R336: - 33 x3,6_33 - p3 + p6 >= 0
 R337: 472 x3,6_33 - p3 + p6 <= 505
 R338: - 55 x3,6_55 - p3 + p6 >= 0
 R339: 472 x3,6_55 - p3 + p6 <= 527
 R340: - 56 x3,6_56 - p3 + p6 >= 0
 R341: 472 x3,6_56 - p3 + p6 <= 528
 R342: - 69 x3,6_69 - p3 + p6 >= 0
 R343: 472 x3,6_69 - p3 + p6 <= 541
 R344: - 79 x3,6_79 - p3 + p6 >= 0
 R345: 472 x3,6_79 - p3 + p6 <= 551
 R346: - 89 x3,6_89 - p3 + p6 >= 0
 R347: 472 x3,6_89 - p3 + p6 <= 561
 R348: - 91 x3,6_91 - p3 + p6 >= 0
 R349: 472 x3,6_91 - p3 + p6 <= 563
 R350: p3 - p7 <= -1
 R351: - 33 x3,7_33 - p3 + p7 >= 0
 R352: 472 x3,7_33 - p3 + p7 <= 505
 R353: - 55 x3,7_55 - p3 + p7 >= 0
 R354: 472 x3,7_55 - p3 + p7 <= 527
 R355: - 56 x3,7_56 - p3 + p7 >= 0
 R356: 472 x3,7_56 - p3 + p7 <= 528
 R357: - 69 x3,7_69 - p3 + p7 >= 0
 R358: 472 x3,7_69 - p3 + p7 <= 541
 R359: - 79 x3,7_79 - p3 + p7 >= 0
 R360: 472 x3,7_79 - p3 + p7 <= 551
 R361: - 89 x3,7_89 - p3 + p7 >= 0
 R362: 472 x3,7_89 - p3 + p7 <= 561
 R363: - 91 x3,7_91 - p3 + p7 >= 0
 R364: 472 x3,7_91 - p3 + p7 <= 563
 R365: p4 - p5 <= -1
 R366: - 33 x4,5_33 - p4 + p5 >= 0
 R367: 472 x4,5_33 - p4 + p5 <= 505
 R368: - 55 x4,5_55 - p4 + p5 >= 0
 R369: 472 x4,5_55 - p4 + p5 <= 527
 R370: - 56 x4,5_56 - p4 + p5 >= 0
 R371: 472 x4,5_56 - p4 + p5 <= 528
 R372: - 69 x4,5_69 - p4 + p5 >= 0
 R373: 472 x4,5_69 - p4 + p5 <= 541
 R374: - 79 x4,5_79 - p4 + p5 >= 0
 R375: 472 x4,5_79 - p4 + p5 <= 551
 R376: - 89 x4,5_89 - p4 + p5 >= 0
 R377: 472 x4,5_89 - p4 + p5 <= 561
 R378: - 91 x4,5_91 - p4 + p5 >= 0
 R379: 472 x4,5_91 - p4 + p5 <= 563
 R380: p4 - p6 <= -1
 R381: - 33 x4,6_33 - p4 + p6 >= 0
 R382: 472 x4,6_33 - p4 + p6 <= 505
 R383: - 55 x4,6_55 - p4 + p6 >= 0
 R384: 472 x4,6_55 - p4 + p6 <= 527
 R385: - 56 x4,6_56 - p4 + p6 >= 0
 R386: 472 x4,6_56 - p4 + p6 <= 528
 R387: - 69 x4,6_69 - p4 + p6 >= 0
 R388: 472 x4,6_69 - p4 + p6 <= 541
 R389: - 79 x4,6_79 - p4 + p6 >= 0
 R390: 472 x4,6_79 - p4 + p6 <= 551
 R391: - 89 x4,6_89 - p4 + p6 >= 0
 R392: 472 x4,6_89 - p4 + p6 <= 561
 R393: - 91 x4,6_91 - p4 + p6 >= 0
 R394: 472 x4,6_91 - p4 + p6 <= 563
 R395: p4 - p7 <= -1
 R396: - 33 x4,7_33 - p4 + p7 >= 0
 R397: 472 x4,7_33 - p4 + p7 <= 505
 R398: - 55 x4,7_55 - p4 + p7 >= 0
 R399: 472 x4,7_55 - p4 + p7 <= 527
 R400: - 56 x4,7_56 - p4 + p7 >= 0
 R401: 472 x4,7_56 - p4 + p7 <= 528
 R402: - 69 x4,7_69 - p4 + p7 >= 0
 R403: 472 x4,7_69 - p4 + p7 <= 541
 R404: - 79 x4,7_79 - p4 + p7 >= 0
 R405: 472 x4,7_79 - p4 + p7 <= 551
 R406: - 89 x4,7_89 - p4 + p7 >= 0
 R407: 472 x4,7_89 - p4 + p7 <= 561
 R408: - 91 x4,7_91 - p4 + p7 >= 0
 R409: 472 x4,7_91 - p4 + p7 <= 563
 R410: p5 - p6 <= -1
 R411: - 33 x5,6_33 - p5 + p6 >= 0
 R412: 472 x5,6_33 - p5 + p6 <= 505
 R413: - 55 x5,6_55 - p5 + p6 >= 0
 R414: 472 x5,6_55 - p5 + p6 <= 527
 R415: - 56 x5,6_56 - p5 + p6 >= 0
 R416: 472 x5,6_56 - p5 + p6 <= 528
 R417: - 69 x5,6_69 - p5 + p6 >= 0
 R418: 472 x5,6_69 - p5 + p6 <= 541
 R419: - 79 x5,6_79 - p5 + p6 >= 0
 R420: 472 x5,6_79 - p5 + p6 <= 551
 R421: - 89 x5,6_89 - p5 + p6 >= 0
 R422: 472 x5,6_89 - p5 + p6 <= 561
 R423: - 91 x5,6_91 - p5 + p6 >= 0
 R424: 472 x5,6_91 - p5 + p6 <= 563
 R425: p5 - p7 <= -1
 R426: - 33 x5,7_33 - p5 + p7 >= 0
 R427: 472 x5,7_33 - p5 + p7 <= 505
 R428: - 55 x5,7_55 - p5 + p7 >= 0
 R429: 472 x5,7_55 - p5 + p7 <= 527
 R430: - 56 x5,7_56 - p5 + p7 >= 0
 R431: 472 x5,7_56 - p5 + p7 <= 528
 R432: - 69 x5,7_69 - p5 + p7 >= 0
 R433: 472 x5,7_69 - p5 + p7 <= 541
 R434: - 79 x5,7_79 - p5 + p7 >= 0
 R435: 472 x5,7_79 - p5 + p7 <= 551
 R436: - 89 x5,7_89 - p5 + p7 >= 0
 R437: 472 x5,7_89 - p5 + p7 <= 561
 R438: - 91 x5,7_91 - p5 + p7 >= 0
 R439: 472 x5,7_91 - p5 + p7 <= 563
 R440: p6 - p7 <= -1
 R441: - 33 x6,7_33 - p6 + p7 >= 0
 R442: 472 x6,7_33 - p6 + p7 <= 505
 R443: - 55 x6,7_55 - p6 + p7 >= 0
 R444: 472 x6,7_55 - p6 + p7 <= 527
 R445: - 56 x6,7_56 - p6 + p7 >= 0
 R446: 472 x6,7_56 - p6 + p7 <= 528
 R447: - 69 x6,7_69 - p6 + p7 >= 0
 R448: 472 x6,7_69 - p6 + p7 <= 541
 R449: - 79 x6,7_79 - p6 + p7 >= 0
 R450: 472 x6,7_79 - p6 + p7 <= 551
 R451: - 89 x6,7_89 - p6 + p7 >= 0
 R452: 472 x6,7_89 - p6 + p7 <= 561
 R453: - 91 x6,7_91 - p6 + p7 >= 0
 R454: 472 x6,7_91 - p6 + p7 <= 563
 R455: z0 - z1 >= 0
 R456: z1 - z2 >= 0
 R457: z2 - z3 >= 0
 R458: z3 - z4 >= 0
 R459: z4 - z5 >= 0
 R460: z5 - z6 >= 0
 R461: z6 - z7 >= 0
Bounds
Binaries
 x0,1_33 x0,1_55 x0,1_56 x0,1_69 x0,1_79 x0,1_89 x0,1_91 x0,2_33 x0,2_55
 x0,2_56 x0,2_69 x0,2_79 x0,2_89 x0,2_91 x0,3_33 x0,3_55 x0,3_56 x0,3_69
 x0,3_79 x0,3_89 x0,3_91 x0,4_33 x0,4_55 x0,4_56 x0,4_69 x0,4_79 x0,4_89
 x0,4_91 x0,5_33 x0,5_55 x0,5_56 x0,5_69 x0,5_79 x0,5_89 x0,5_91 x0,6_33
 x0,6_55 x0,6_56 x0,6_69 x0,6_79 x0,6_89 x0,6_91 x0,7_33 x0,7_55 x0,7_56
 x0,7_69 x0,7_79 x0,7_89 x0,7_91 x1,2_33 x1,2_55 x1,2_56 x1,2_69 x1,2_79
 x1,2_89 x1,2_91 x1,3_33 x1,3_55 x1,3_56 x1,3_69 x1,3_79 x1,3_89 x1,3_91
 x1,4_33 x1,4_55 x1,4_56 x1,4_69 x1,4_79 x1,4_89 x1,4_91 x1,5_33 x1,5_55
 x1,5_56 x1,5_69 x1,5_79 x1,5_89 x1,5_91 x1,6_33 x1,6_55 x1,6_56 x1,6_69
 x1,6_79 x1,6_89 x1,6_91 x1,7_33 x1,7_55 x1,7_56 x1,7_69 x1,7_79 x1,7_89
 x1,7_91 x2,3_33 x2,3_55 x2,3_56 x2,3_69 x2,3_79 x2,3_89 x2,3_91 x2,4_33
 x2,4_55 x2,4_56 x2,4_69 x2,4_79 x2,4_89 x2,4_91 x2,5_33 x2,5_55 x2,5_56
 x2,5_69 x2,5_79 x2,5_89 x2,5_91 x2,6_33 x2,6_55 x2,6_56 x2,6_69 x2,6_79
 x2,6_89 x2,6_91 x2,7_33 x2,7_55 x2,7_56 x2,7_69 x2,7_79 x2,7_89 x2,7_91
 x3,4_33 x3,4_55 x3,4_56 x3,4_69 x3,4_79 x3,4_89 x3,4_91 x3,5_33 x3,5_55
 x3,5_56 x3,5_69 x3,5_79 x3,5_89 x3,5_91 x3,6_33 x3,6_55 x3,6_56 x3,6_69
 x3,6_79 x3,6_89 x3,6_91 x3,7_33 x3,7_55 x3,7_56 x3,7_69 x3,7_79 x3,7_89
 x3,7_91 x4,5_33 x4,5_55 x4,5_56 x4,5_69 x4,5_79 x4,5_89 x4,5_91 x4,6_33
 x4,6_55 x4,6_56 x4,6_69 x4,6_79 x4,6_89 x4,6_91 x4,7_33 x4,7_55 x4,7_56
 x4,7_69 x4,7_79 x4,7_89 x4,7_91 x5,6_33 x5,6_55 x5,6_56 x5,6_69 x5,6_79
 x5,6_89 x5,6_91 x5,7_33 x5,7_55 x5,7_56 x5,7_69 x5,7_79 x5,7_89 x5,7_91
 x6,7_33 x6,7_55 x6,7_56 x6,7_69 x6,7_79 x6,7_89 x6,7_91 z0 z1 z2 z3 z4 z5
 z6 z7
Generals
 p0 p1 p2 p3 p4 p5 p6 p7
End
