logs/drand/ip/drand-07-110-2.sol
# Objective value = 6
x0,1_33 1
x0,1_55 0
x0,1_56 0
x0,1_69 0
x0,1_79 0
x0,1_89 0
x0,1_91 0
x0,2_33 0
x0,2_55 1
x0,2_56 0
x0,2_69 0
x0,2_79 0
x0,2_89 0
x0,2_91 0
x0,3_33 0
x0,3_55 0
x0,3_56 0
x0,3_69 0
x0,3_79 0
x0,3_89 1
x0,3_91 0
x0,4_33 0
x0,4_55 0
x0,4_56 0
x0,4_69 0
x0,4_79 0
x0,4_89 0
x0,4_91 0
x0,5_33 0
x0,5_55 0
x0,5_56 0
x0,5_69 0
x0,5_79 0
x0,5_89 0
x0,5_91 0
x0,6_33 0
x0,6_55 0
x0,6_56 0
x0,6_69 0
x0,6_79 0
x0,6_89 0
x0,6_91 0
x0,7_33 0
x0,7_55 0
x0,7_56 0
x0,7_69 0
x0,7_79 0
x0,7_89 0
x0,7_91 0
x1,2_33 0
x1,2_55 0
x1,2_56 0
x1,2_69 0
x1,2_79 0
x1,2_89 0
x1,2_91 0
x1,3_33 0
x1,3_55 0
x1,3_56 1
x1,3_69 0
x1,3_79 0
x1,3_89 0
x1,3_91 0
x1,4_33 0
x1,4_55 0
x1,4_56 0
x1,4_69 0
x1,4_79 0
x1,4_89 0
x1,4_91 1
x1,5_33 0
x1,5_55 0
x1,5_56 0
x1,5_69 0
x1,5_79 0
x1,5_89 0
x1,5_91 0
x1,6_33 0
x1,6_55 0
x1,6_56 0
x1,6_69 0
x1,6_79 0
x1,6_89 0
x1,6_91 0
x1,7_33 0
x1,7_55 0
x1,7_56 0
x1,7_69 0
x1,7_79 0
x1,7_89 0
x1,7_91 0
x2,3_33 0
x2,3_55 0
x2,3_56 0
x2,3_69 0
x2,3_79 0
x2,3_89 0
x2,3_91 0
x2,4_33 0
x2,4_55 0
x2,4_56 0
x2,4_69 1
x2,4_79 0
x2,4_89 0
x2,4_91 0
x2,5_33 0
x2,5_55 0
x2,5_56 0
x2,5_69 0
x2,5_79 1
x2,5_89 0
x2,5_91 0
x2,6_33 0
x2,6_55 0
x2,6_56 0
x2,6_69 0
x2,6_79 0
x2,6_89 0
x2,6_91 0
x2,7_33 0
x2,7_55 0
x2,7_56 0
x2,7_69 0
x2,7_79 0
x2,7_89 0
x2,7_91 0
x3,4_33 0
x3,4_55 0
x3,4_56 0
x3,4_69 0
x3,4_79 0
x3,4_89 0
x3,4_91 0
x3,5_33 0
x3,5_55 0
x3,5_56 0
x3,5_69 0
x3,5_79 0
x3,5_89 0
x3,5_91 0
x3,6_33 0
x3,6_55 0
x3,6_56 0
x3,6_69 0
x3,6_79 0
x3,6_89 0
x3,6_91 0
x3,7_33 0
x3,7_55 0
x3,7_56 0
x3,7_69 0
x3,7_79 0
x3,7_89 0
x3,7_91 0
x4,5_33 0
x4,5_55 0
x4,5_56 0
x4,5_69 0
x4,5_79 0
x4,5_89 0
x4,5_91 0
x4,6_33 0
x4,6_55 0
x4,6_56 0
x4,6_69 0
x4,6_79 0
x4,6_89 0
x4,6_91 0
x4,7_33 0
x4,7_55 0
x4,7_56 0
x4,7_69 0
x4,7_79 0
x4,7_89 0
x4,7_91 0
x5,6_33 0
x5,6_55 0
x5,6_56 0
x5,6_69 0
x5,6_79 0
x5,6_89 0
x5,6_91 0
x5,7_33 0
x5,7_55 0
x5,7_56 0
x5,7_69 0
x5,7_79 0
x5,7_89 0
x5,7_91 0
x6,7_33 0
x6,7_55 0
x6,7_56 0
x6,7_69 0
x6,7_79 0
x6,7_89 0
x6,7_91 0
z0 1
z1 1
z2 1
z3 1
z4 1
z5 1
z6 0
z7 0
p0 0
p1 33
p2 55
p3 89
p4 124
p5 134
p6 135
p7 136
